Problem:    gas
Rows:       15
Columns:    6
Non-zeros:  23
Status:     OPTIMAL
Objective:  z = 9.5 (MINimum)

   No.   Row name   St   Activity     Lower bound   Upper bound    Marginal
------ ------------ -- ------------- ------------- ------------- -------------
     1 z            B            9.5                             
     2 con1         B            -14                          -6 
     3 con2         NU            14                          14         -0.25 
     4 con3         B          -23.5                         -20 
     5 con4         B           23.5                          28 
     6 con5         B            -33                         -31 
     7 con6         B             33                          39 
     8 con7         B           42.5                          50 
     9 con8         B          -42.5                         -42 
    10 con9         B             52                          60 
    11 con10        NU           -52                         -52         -0.25 
    12 con11        NU             0                          -0         -0.25 
    13 con12        NU             0                          -0         -0.25 
    14 con13        NU             0                          -0         -0.25 
    15 con14        NU             0                          -0         -0.25 

   No. Column name  St   Activity     Lower bound   Upper bound    Marginal
------ ------------ -- ------------- ------------- ------------- -------------
     1 g1           B             14                             
     2 g2           B           23.5                             
     3 g3           B             33                             
     4 g4           B           42.5                             
     5 g5           B             52                             
     6 d            B            9.5                             

Karush-Kuhn-Tucker optimality conditions:

KKT.PE: max.abs.err = 0.00e+00 on row 0
        max.rel.err = 0.00e+00 on row 0
        High quality

KKT.PB: max.abs.err = 0.00e+00 on row 0
        max.rel.err = 0.00e+00 on row 0
        High quality

KKT.DE: max.abs.err = 0.00e+00 on column 0
        max.rel.err = 0.00e+00 on column 0
        High quality

KKT.DB: max.abs.err = 0.00e+00 on row 0
        max.rel.err = 0.00e+00 on row 0
        High quality

End of output
